
Gurobi 7.5.2 (linux64) logging started Thu Mar 21 01:08:19 2019

Changed value of parameter LogFile to /home/aniket/python_scripts/Plasmids/exp/2019-03-21__iterative_with_questionable/output/sample_125/1.1.1/nplasmids_1/MILP/m.log
   Prev: gurobi.log  Default: 
Changed value of parameter TimeLimit to 2400.0
   Prev: 1e+100  Min: 0.0  Max: 1e+100  Default: 1e+100
Optimize a model with 3225 rows, 938 columns and 13046 nonzeros
Variable types: 247 continuous, 691 integer (363 binary)
Coefficient statistics:
  Matrix range     [2e-01, 1e+06]
  Objective range  [4e-04, 1e+06]
  Bounds range     [1e+00, 1e+00]
  RHS range        [5e-01, 1e+06]
Presolve removed 2590 rows and 579 columns
Presolve time: 0.02s
Presolved: 635 rows, 359 columns, 2094 nonzeros
Variable types: 74 continuous, 285 integer (212 binary)
Found heuristic solution: objective -92375.98915

Root relaxation: objective -2.419448e+05, 474 iterations, 0.01 seconds

    Nodes    |    Current Node    |     Objective Bounds      |     Work
 Expl Unexpl |  Obj  Depth IntInf | Incumbent    BestBd   Gap | It/Node Time

     0     0 -241944.76    0   47 -92375.989 -241944.76   162%     -    0s
     0     0 -228739.71    0   33 -92375.989 -228739.71   148%     -    0s
     0     0 -228196.13    0   31 -92375.989 -228196.13   147%     -    0s
     0     0 -228184.94    0   36 -92375.989 -228184.94   147%     -    0s
     0     0 -228183.54    0   46 -92375.989 -228183.54   147%     -    0s
     0     0 -227991.70    0   17 -92375.989 -227991.70   147%     -    0s
     0     0 -227868.43    0    5 -92375.989 -227868.43   147%     -    0s
H    0     0                    -94680.19504 -227868.43   141%     -    0s
*    0     0               0    -227865.9801 -227865.98  0.00%     -    0s

Cutting planes:
  Gomory: 7
  Cover: 47
  Implied bound: 7
  Clique: 8
  MIR: 2
  Flow cover: 11
  Zero half: 2

Explored 1 nodes (638 simplex iterations) in 0.06 seconds
Thread count was 4 (of 4 available processors)

Solution count 3: -227866 -94680.2 -92376 

Optimal solution found (tolerance 1.00e-04)
Best objective -2.278659800841e+05, best bound -2.278659800841e+05, gap 0.0000%

Gurobi 7.5.2 (linux64) logging started Thu Mar 21 01:08:19 2019

Changed value of parameter LogFile to /home/aniket/python_scripts/Plasmids/exp/2019-03-21__iterative_with_questionable/output/sample_125/1.1.1/nplasmids_1/MILP/m.log
   Prev: gurobi.log  Default: 
Changed value of parameter TimeLimit to 2400.0
   Prev: 1e+100  Min: 0.0  Max: 1e+100  Default: 1e+100
Optimize a model with 2809 rows, 816 columns and 10624 nonzeros
Variable types: 217 continuous, 599 integer (311 binary)
Coefficient statistics:
  Matrix range     [2e-01, 1e+06]
  Objective range  [6e-04, 2e+05]
  Bounds range     [1e+00, 1e+00]
  RHS range        [2e-01, 1e+06]
Presolve removed 2193 rows and 469 columns
Presolve time: 0.02s
Presolved: 616 rows, 347 columns, 2021 nonzeros
Variable types: 73 continuous, 274 integer (202 binary)
Found heuristic solution: objective -28366.00866

Root relaxation: objective -5.295953e+04, 444 iterations, 0.00 seconds

    Nodes    |    Current Node    |     Objective Bounds      |     Work
 Expl Unexpl |  Obj  Depth IntInf | Incumbent    BestBd   Gap | It/Node Time

     0     0 -52959.527    0   72 -28366.009 -52959.527  86.7%     -    0s
     0     0 -41526.645    0   54 -28366.009 -41526.645  46.4%     -    0s
H    0     0                    -29434.53262 -41526.645  41.1%     -    0s
     0     0 -41523.252    0   48 -29434.533 -41523.252  41.1%     -    0s
     0     0 -41523.252    0   47 -29434.533 -41523.252  41.1%     -    0s
     0     0 -40287.675    0   13 -29434.533 -40287.675  36.9%     -    0s
H    0     0                    -31175.13180 -40287.675  29.2%     -    0s
     0     0 -40282.890    0   13 -31175.132 -40282.890  29.2%     -    0s
     0     0 -40273.086    0    9 -31175.132 -40273.086  29.2%     -    0s
*    0     0               0    -40269.41892 -40269.419  0.00%     -    0s

Explored 1 nodes (707 simplex iterations) in 0.06 seconds
Thread count was 4 (of 4 available processors)

Solution count 4: -40269.4 -31175.1 -29434.5 -28366 

Optimal solution found (tolerance 1.00e-04)
Best objective -4.026941891991e+04, best bound -4.026941891991e+04, gap 0.0000%

Gurobi 7.5.2 (linux64) logging started Thu Mar 21 01:08:20 2019

Changed value of parameter LogFile to /home/aniket/python_scripts/Plasmids/exp/2019-03-21__iterative_with_questionable/output/sample_125/1.1.1/nplasmids_1/MILP/m.log
   Prev: gurobi.log  Default: 
Changed value of parameter TimeLimit to 2400.0
   Prev: 1e+100  Min: 0.0  Max: 1e+100  Default: 1e+100
Optimize a model with 2771 rows, 805 columns and 10409 nonzeros
Variable types: 214 continuous, 591 integer (307 binary)
Coefficient statistics:
  Matrix range     [2e-01, 1e+06]
  Objective range  [6e-04, 2e+05]
  Bounds range     [1e+00, 1e+00]
  RHS range        [2e-01, 1e+06]
Presolve removed 2160 rows and 461 columns
Presolve time: 0.02s
Presolved: 611 rows, 344 columns, 2004 nonzeros
Variable types: 72 continuous, 272 integer (201 binary)
Found heuristic solution: objective -24518.56722

Root relaxation: objective -2.608572e+04, 372 iterations, 0.00 seconds

    Nodes    |    Current Node    |     Objective Bounds      |     Work
 Expl Unexpl |  Obj  Depth IntInf | Incumbent    BestBd   Gap | It/Node Time

     0     0 -26085.719    0   29 -24518.567 -26085.719  6.39%     -    0s
     0     0 -25604.276    0   33 -24518.567 -25604.276  4.43%     -    0s
     0     0 -25600.436    0   31 -24518.567 -25600.436  4.41%     -    0s
     0     0 -25600.436    0   31 -24518.567 -25600.436  4.41%     -    0s
     0     0 -25557.397    0   18 -24518.567 -25557.397  4.24%     -    0s
     0     0 -25556.521    0   18 -24518.567 -25556.521  4.23%     -    0s
     0     0 -25556.521    0   18 -24518.567 -25556.521  4.23%     -    0s
     0     0 -25541.989    0    4 -24518.567 -25541.989  4.17%     -    0s
     0     0 -25540.229    0   18 -24518.567 -25540.229  4.17%     -    0s
     0     0 -25540.229    0   18 -24518.567 -25540.229  4.17%     -    0s
*    0     0               0    -25529.58408 -25529.584  0.00%     -    0s

Cutting planes:
  Gomory: 5
  Cover: 41
  Implied bound: 22
  Clique: 10
  MIR: 4
  Flow cover: 17
  Zero half: 3

Explored 1 nodes (548 simplex iterations) in 0.05 seconds
Thread count was 4 (of 4 available processors)

Solution count 2: -25529.6 -24518.6 

Optimal solution found (tolerance 1.00e-04)
Best objective -2.552958407787e+04, best bound -2.552958407787e+04, gap 0.0000%

Gurobi 7.5.2 (linux64) logging started Thu Mar 21 01:08:20 2019

Changed value of parameter LogFile to /home/aniket/python_scripts/Plasmids/exp/2019-03-21__iterative_with_questionable/output/sample_125/1.1.1/nplasmids_1/MILP/m.log
   Prev: gurobi.log  Default: 
Changed value of parameter TimeLimit to 2400.0
   Prev: 1e+100  Min: 0.0  Max: 1e+100  Default: 1e+100
Optimize a model with 2733 rows, 794 columns and 10196 nonzeros
Variable types: 211 continuous, 583 integer (303 binary)
Coefficient statistics:
  Matrix range     [2e-01, 1e+06]
  Objective range  [6e-04, 2e+05]
  Bounds range     [1e+00, 1e+00]
  RHS range        [2e-01, 1e+06]
Presolve removed 2127 rows and 453 columns
Presolve time: 0.02s
Presolved: 606 rows, 341 columns, 1988 nonzeros
Variable types: 71 continuous, 270 integer (200 binary)
Found heuristic solution: objective -3952.186890

Root relaxation: objective -9.705192e+03, 260 iterations, 0.00 seconds

    Nodes    |    Current Node    |     Objective Bounds      |     Work
 Expl Unexpl |  Obj  Depth IntInf | Incumbent    BestBd   Gap | It/Node Time

     0     0 -9705.1919    0  130 -3952.1869 -9705.1919   146%     -    0s
     0     0 -9399.1220    0   69 -3952.1869 -9399.1220   138%     -    0s
     0     0 -9399.1220    0   45 -3952.1869 -9399.1220   138%     -    0s
H    0     0                    -4864.415202 -9399.1220  93.2%     -    0s
     0     0 -9210.5244    0   41 -4864.4152 -9210.5244  89.3%     -    0s
H    0     0                    -6788.711044 -9210.5244  35.7%     -    0s
     0     0     cutoff    0      -6788.7110 -6788.7110  0.00%     -    0s

Cutting planes:
  Gomory: 15
  Implied bound: 2
  Flow cover: 3

Explored 1 nodes (515 simplex iterations) in 0.07 seconds
Thread count was 4 (of 4 available processors)

Solution count 3: -6788.71 -4864.42 -3952.19 

Optimal solution found (tolerance 1.00e-04)
Best objective -6.788711043851e+03, best bound -6.788711043851e+03, gap 0.0000%

Gurobi 7.5.2 (linux64) logging started Thu Mar 21 01:08:20 2019

Changed value of parameter LogFile to /home/aniket/python_scripts/Plasmids/exp/2019-03-21__iterative_with_questionable/output/sample_125/1.1.1/nplasmids_1/MILP/m.log
   Prev: gurobi.log  Default: 
Changed value of parameter TimeLimit to 2400.0
   Prev: 1e+100  Min: 0.0  Max: 1e+100  Default: 1e+100
Optimize a model with 2689 rows, 781 columns and 9958 nonzeros
Variable types: 208 continuous, 573 integer (297 binary)
Coefficient statistics:
  Matrix range     [2e-01, 1e+06]
  Objective range  [6e-04, 2e+05]
  Bounds range     [1e+00, 1e+00]
  RHS range        [2e-01, 1e+06]
Presolve removed 2099 rows and 450 columns
Presolve time: 0.01s
Presolved: 590 rows, 331 columns, 1930 nonzeros
Variable types: 70 continuous, 261 integer (192 binary)
Found heuristic solution: objective -346.2844974

Root relaxation: objective -9.706197e+03, 247 iterations, 0.00 seconds

    Nodes    |    Current Node    |     Objective Bounds      |     Work
 Expl Unexpl |  Obj  Depth IntInf | Incumbent    BestBd   Gap | It/Node Time

     0     0 -9706.1974    0  129 -346.28450 -9706.1974  2703%     -    0s
H    0     0                    -527.5871802 -9706.1974  1740%     -    0s
     0     0 -9510.3807    0  143 -527.58718 -9510.3807  1703%     -    0s
H    0     0                    -767.6997604 -9510.3807  1139%     -    0s
H    0     0                    -4864.415202 -9510.3807  95.5%     -    0s
     0     0 -9338.7197    0   63 -4864.4152 -9338.7197  92.0%     -    0s
     0     0 -9318.8055    0   56 -4864.4152 -9318.8055  91.6%     -    0s
     0     0 -9318.2154    0   59 -4864.4152 -9318.2154  91.6%     -    0s
     0     0 -9306.3305    0   55 -4864.4152 -9306.3305  91.3%     -    0s
     0     0 -9306.3305    0   21 -4864.4152 -9306.3305  91.3%     -    0s
H    0     0                    -5233.815292 -9306.3305  77.8%     -    0s
     0     0 -8797.0391    0   19 -5233.8153 -8797.0391  68.1%     -    0s
     0     0 -8382.8605    0   21 -5233.8153 -8382.8605  60.2%     -    0s
     0     0 -8382.4924    0   21 -5233.8153 -8382.4924  60.2%     -    0s
     0     0 -8346.3546    0   23 -5233.8153 -8346.3546  59.5%     -    0s
     0     0 -8342.0575    0   23 -5233.8153 -8342.0575  59.4%     -    0s
     0     0 -8339.3286    0   24 -5233.8153 -8339.3286  59.3%     -    0s
     0     2 -8339.3286    0   24 -5233.8153 -8339.3286  59.3%     -    0s

Cutting planes:
  Gomory: 9
  Implied bound: 2
  MIR: 2

Explored 13 nodes (673 simplex iterations) in 0.11 seconds
Thread count was 4 (of 4 available processors)

Solution count 5: -5233.82 -4864.42 -767.7 ... -346.284

Optimal solution found (tolerance 1.00e-04)
Best objective -5.233815292307e+03, best bound -5.233815292307e+03, gap 0.0000%

Gurobi 7.5.2 (linux64) logging started Thu Mar 21 01:08:20 2019

Changed value of parameter LogFile to /home/aniket/python_scripts/Plasmids/exp/2019-03-21__iterative_with_questionable/output/sample_125/1.1.1/nplasmids_1/MILP/m.log
   Prev: gurobi.log  Default: 
Changed value of parameter TimeLimit to 2400.0
   Prev: 1e+100  Min: 0.0  Max: 1e+100  Default: 1e+100
Optimize a model with 2648 rows, 769 columns and 9736 nonzeros
Variable types: 205 continuous, 564 integer (292 binary)
Coefficient statistics:
  Matrix range     [2e-01, 1e+06]
  Objective range  [6e-04, 2e+05]
  Bounds range     [1e+00, 1e+00]
  RHS range        [2e-01, 1e+06]
Presolve removed 2074 rows and 446 columns
Presolve time: 0.02s
Presolved: 574 rows, 323 columns, 1883 nonzeros
Variable types: 68 continuous, 255 integer (188 binary)
Found heuristic solution: objective -346.2844974

Root relaxation: objective -6.913716e+03, 340 iterations, 0.00 seconds

    Nodes    |    Current Node    |     Objective Bounds      |     Work
 Expl Unexpl |  Obj  Depth IntInf | Incumbent    BestBd   Gap | It/Node Time

     0     0 -6913.7162    0   74 -346.28450 -6913.7162  1897%     -    0s
H    0     0                    -3926.858177 -6913.7162  76.1%     -    0s
     0     0 -6536.0154    0    8 -3926.8582 -6536.0154  66.4%     -    0s
     0     0 -6088.3261    0    6 -3926.8582 -6088.3261  55.0%     -    0s
H    0     0                    -4123.066419 -6088.3261  47.7%     -    0s
     0     0 -5314.3618    0    5 -4123.0664 -5314.3618  28.9%     -    0s
H    0     0                    -4859.913617 -5314.3618  9.35%     -    0s
*    0     0               0    -4864.415202 -4864.4152  0.00%     -    0s

Cutting planes:
  Gomory: 2
  Cover: 1
  Implied bound: 3

Explored 1 nodes (424 simplex iterations) in 0.04 seconds
Thread count was 4 (of 4 available processors)

Solution count 5: -4864.42 -4859.91 -4123.07 ... -346.284

Optimal solution found (tolerance 1.00e-04)
Best objective -4.864415202281e+03, best bound -4.864415202281e+03, gap 0.0000%

Gurobi 7.5.2 (linux64) logging started Thu Mar 21 01:08:20 2019

Changed value of parameter LogFile to /home/aniket/python_scripts/Plasmids/exp/2019-03-21__iterative_with_questionable/output/sample_125/1.1.1/nplasmids_1/MILP/m.log
   Prev: gurobi.log  Default: 
Changed value of parameter TimeLimit to 2400.0
   Prev: 1e+100  Min: 0.0  Max: 1e+100  Default: 1e+100
Optimize a model with 2607 rows, 757 columns and 9516 nonzeros
Variable types: 202 continuous, 555 integer (287 binary)
Coefficient statistics:
  Matrix range     [2e-01, 1e+06]
  Objective range  [6e-04, 2e+05]
  Bounds range     [1e+00, 1e+00]
  RHS range        [2e-01, 1e+06]
Presolve removed 2043 rows and 441 columns
Presolve time: 0.01s
Presolved: 564 rows, 316 columns, 1851 nonzeros
Variable types: 67 continuous, 249 integer (183 binary)
Found heuristic solution: objective -346.2844974

Root relaxation: objective -2.502539e+03, 355 iterations, 0.00 seconds

    Nodes    |    Current Node    |     Objective Bounds      |     Work
 Expl Unexpl |  Obj  Depth IntInf | Incumbent    BestBd   Gap | It/Node Time

     0     0 -2502.5395    0   40 -346.28450 -2502.5395   623%     -    0s
     0     0 -1679.4624    0   19 -346.28450 -1679.4624   385%     -    0s
     0     0 -1676.0181    0   23 -346.28450 -1676.0181   384%     -    0s
     0     0 -1654.8682    0   18 -346.28450 -1654.8682   378%     -    0s
     0     0 -1653.5870    0   21 -346.28450 -1653.5870   378%     -    0s
     0     0 -1650.8699    0   15 -346.28450 -1650.8699   377%     -    0s
     0     0 -1646.0177    0   13 -346.28450 -1646.0177   375%     -    0s
     0     0 -1645.8358    0   13 -346.28450 -1645.8358   375%     -    0s
H    0     0                    -1632.694768 -1645.8358  0.80%     -    0s
     0     0 -1644.8358    0   13 -1632.6948 -1644.8358  0.74%     -    0s
H    0     0                    -1632.754989 -1644.8358  0.74%     -    0s
*    0     0               0    -1635.903172 -1635.9032  0.00%     -    0s

Explored 1 nodes (676 simplex iterations) in 0.06 seconds
Thread count was 4 (of 4 available processors)

Solution count 4: -1635.9 -1632.75 -1632.69 -346.284 

Optimal solution found (tolerance 1.00e-04)
Best objective -1.635903171560e+03, best bound -1.635903171560e+03, gap 0.0000%

Gurobi 7.5.2 (linux64) logging started Thu Mar 21 01:08:20 2019

Changed value of parameter LogFile to /home/aniket/python_scripts/Plasmids/exp/2019-03-21__iterative_with_questionable/output/sample_125/1.1.1/nplasmids_1/MILP/m.log
   Prev: gurobi.log  Default: 
Changed value of parameter TimeLimit to 2400.0
   Prev: 1e+100  Min: 0.0  Max: 1e+100  Default: 1e+100
Optimize a model with 2569 rows, 746 columns and 9311 nonzeros
Variable types: 199 continuous, 547 integer (283 binary)
Coefficient statistics:
  Matrix range     [2e-01, 1e+06]
  Objective range  [6e-04, 2e+05]
  Bounds range     [1e+00, 1e+00]
  RHS range        [2e-01, 1e+06]
Presolve removed 2056 rows and 433 columns
Presolve time: 0.01s
Presolved: 513 rows, 313 columns, 1659 nonzeros
Variable types: 66 continuous, 247 integer (247 binary)
Found heuristic solution: objective -346.2844974

Root relaxation: objective -9.714967e+02, 323 iterations, 0.00 seconds

    Nodes    |    Current Node    |     Objective Bounds      |     Work
 Expl Unexpl |  Obj  Depth IntInf | Incumbent    BestBd   Gap | It/Node Time

     0     0 -971.49666    0   33 -346.28450 -971.49666   181%     -    0s
     0     0 -878.22986    0   11 -346.28450 -878.22986   154%     -    0s
     0     0 -861.54292    0    8 -346.28450 -861.54292   149%     -    0s
     0     0 -861.54292    0    8 -346.28450 -861.54292   149%     -    0s
     0     0 -823.51398    0   22 -346.28450 -823.51398   138%     -    0s
     0     0 -808.34124    0   24 -346.28450 -808.34124   133%     -    0s
     0     0 -808.34124    0   24 -346.28450 -808.34124   133%     -    0s
     0     0 -793.21248    0    2 -346.28450 -793.21248   129%     -    0s
     0     0 -791.85669    0    2 -346.28450 -791.85669   129%     -    0s
     0     0 -791.85669    0    2 -346.28450 -791.85669   129%     -    0s
     0     0 -786.42127    0   15 -346.28450 -786.42127   127%     -    0s
     0     0 -786.17127    0   15 -346.28450 -786.17127   127%     -    0s
*    0     0               0    -783.5551752 -783.55518  0.00%     -    0s

Cutting planes:
  Gomory: 10
  Cover: 39
  Implied bound: 2
  Clique: 11
  MIR: 1
  Flow cover: 27
  Zero half: 2

Explored 1 nodes (503 simplex iterations) in 0.05 seconds
Thread count was 4 (of 4 available processors)

Solution count 2: -783.555 -346.284 

Optimal solution found (tolerance 1.00e-04)
Best objective -7.835551751585e+02, best bound -7.835551751585e+02, gap 0.0000%

Gurobi 7.5.2 (linux64) logging started Thu Mar 21 01:08:20 2019

Changed value of parameter LogFile to /home/aniket/python_scripts/Plasmids/exp/2019-03-21__iterative_with_questionable/output/sample_125/1.1.1/nplasmids_1/MILP/m.log
   Prev: gurobi.log  Default: 
Changed value of parameter TimeLimit to 2400.0
   Prev: 1e+100  Min: 0.0  Max: 1e+100  Default: 1e+100
Optimize a model with 2526 rows, 734 columns and 9085 nonzeros
Variable types: 196 continuous, 538 integer (278 binary)
Coefficient statistics:
  Matrix range     [2e-01, 1e+06]
  Objective range  [6e-04, 2e+05]
  Bounds range     [1e+00, 1e+00]
  RHS range        [2e-01, 1e+06]
Presolve removed 2104 rows and 467 columns
Presolve time: 0.01s
Presolved: 422 rows, 267 columns, 1330 nonzeros
Variable types: 57 continuous, 210 integer (210 binary)

Root relaxation: objective 2.555176e+02, 312 iterations, 0.00 seconds

    Nodes    |    Current Node    |     Objective Bounds      |     Work
 Expl Unexpl |  Obj  Depth IntInf | Incumbent    BestBd   Gap | It/Node Time

     0     0  255.51756    0   29          -  255.51756      -     -    0s
     0     0  302.23320    0   14          -  302.23320      -     -    0s
     0     0  315.77050    0   18          -  315.77050      -     -    0s
     0     0  345.66665    0    6          -  345.66665      -     -    0s
     0     0  345.66665    0    6          -  345.66665      -     -    0s
     0     0  359.91626    0    6          -  359.91626      -     -    0s
     0     0  365.10564    0   13          -  365.10564      -     -    0s
     0     0  372.87465    0    2          -  372.87465      -     -    0s
*    0     0               0     382.5319544  382.53195  0.00%     -    0s

Cutting planes:
  Gomory: 11
  Cover: 38
  Implied bound: 1
  Clique: 8
  Flow cover: 31

Explored 1 nodes (453 simplex iterations) in 0.04 seconds
Thread count was 4 (of 4 available processors)

Solution count 1: 382.532 

Optimal solution found (tolerance 1.00e-04)
Best objective 3.825319543686e+02, best bound 3.825319543686e+02, gap 0.0000%

Gurobi 7.5.2 (linux64) logging started Thu Mar 21 01:08:20 2019

Changed value of parameter LogFile to /home/aniket/python_scripts/Plasmids/exp/2019-03-21__iterative_with_questionable/output/sample_125/1.1.1/nplasmids_1/MILP/m.log
   Prev: gurobi.log  Default: 
Changed value of parameter TimeLimit to 2400.0
   Prev: 1e+100  Min: 0.0  Max: 1e+100  Default: 1e+100
Optimize a model with 2283 rows, 663 columns and 7845 nonzeros
Variable types: 178 continuous, 485 integer (249 binary)
Coefficient statistics:
  Matrix range     [5e-02, 1e+06]
  Objective range  [6e-04, 2e+05]
  Bounds range     [1e+00, 1e+00]
  RHS range        [5e-02, 1e+06]
Presolve removed 1871 rows and 403 columns
Presolve time: 0.01s
Presolved: 412 rows, 260 columns, 1293 nonzeros
Variable types: 56 continuous, 204 integer (204 binary)

Root relaxation: objective 5.198160e+02, 261 iterations, 0.00 seconds

    Nodes    |    Current Node    |     Objective Bounds      |     Work
 Expl Unexpl |  Obj  Depth IntInf | Incumbent    BestBd   Gap | It/Node Time

     0     0  519.81604    0   18          -  519.81604      -     -    0s
     0     0  543.55772    0    6          -  543.55772      -     -    0s
     0     0  546.95114    0    6          -  546.95114      -     -    0s
     0     0  578.22967    0   14          -  578.22967      -     -    0s
     0     0  590.15954    0    2          -  590.15954      -     -    0s
     0     0  601.26600    0   53          -  601.26600      -     -    0s
*    0     0               0     605.1896367  605.18964  0.00%     -    0s

Cutting planes:
  Gomory: 6
  Cover: 32
  Clique: 12
  Flow cover: 3
  Zero half: 3

Explored 1 nodes (362 simplex iterations) in 0.03 seconds
Thread count was 4 (of 4 available processors)

Solution count 1: 605.19 

Optimal solution found (tolerance 1.00e-04)
Best objective 6.051896367322e+02, best bound 6.051896367322e+02, gap 0.0000%
